(set-logic QF_LRA)
(declare-fun fluent_started_i0_t3@1 () Bool)
(declare-fun fluent_started_i0_t4@1 () Bool)
(declare-fun fluent_started_i0_t5@1 () Bool)
(declare-fun fluent_treated_i0_t0@1 () Bool)
(declare-fun fluent_started_i0_t0@0 () Bool)
(declare-fun fluent_started_i0_t1@0 () Bool)
(declare-fun fluent_started_i0_t2@0 () Bool)
(declare-fun fluent_started_i0_t3@0 () Bool)
(declare-fun fluent_started_i0_t4@0 () Bool)
(declare-fun fluent_started_i0_t5@0 () Bool)
(declare-fun fluent_treated_i0_t1@1 () Bool)
(declare-fun fluent_ready_i0_t0@0 () Bool)
(declare-fun fluent_ready_i0_t1@0 () Bool)
(declare-fun fluent_ready_i0_t2@0 () Bool)
(declare-fun fluent_ready_i0_t3@0 () Bool)
(declare-fun fluent_ready_i0_t4@0 () Bool)
(declare-fun fluent_ready_i0_t5@0 () Bool)
(declare-fun fluent_treated_i0_t3@1 () Bool)
(declare-fun fluent_busy_@0 () Bool)
(declare-fun fluent_treated_i0_t4@1 () Bool)
(declare-fun fluent_treated_i0_t0@0 () Bool)
(declare-fun fluent_treated_i0_t1@0 () Bool)
(declare-fun fluent_treated_i0_t2@0 () Bool)
(declare-fun fluent_treated_i0_t3@0 () Bool)
(declare-fun fluent_treated_i0_t4@0 () Bool)
(declare-fun fluent_treated_i0_t5@0 () Bool)
(declare-fun fluent_ready_i0_t2@1 () Bool)
(declare-fun fluent_ready_i0_t3@1 () Bool)
(declare-fun fluent_ready_i0_t0@1 () Bool)
(declare-fun fluent_ready_i0_t4@1 () Bool)
(declare-fun fluent_ready_i0_t1@1 () Bool)
(declare-fun fluent_ready_i0_t5@1 () Bool)
(declare-fun act_make_treatment@1 () Bool)
(declare-fun fluent_counter_t0@0 () Real)
(declare-fun fluent_counter_t1@0 () Real)
(declare-fun fluent_counter_t2@0 () Real)
(declare-fun fluent_counter_t3@0 () Real)
(declare-fun fluent_counter_t4@0 () Real)
(declare-fun fluent_counter_t5@0 () Real)
(declare-fun dur_make_treatment@1 () Real)
(declare-fun fluent_treated_i0_t2@1 () Bool)
(declare-fun t@1 () Real)
(declare-fun parameter_make_treatment_t@1 () Real)
(declare-fun fluent_counter_t0@1 () Real)
(declare-fun parameter_make_treatment_i@1 () Real)
(declare-fun fluent_counter_t1@1 () Real)
(declare-fun fluent_counter_t2@1 () Real)
(declare-fun fluent_counter_t3@1 () Real)
(declare-fun fluent_treated_i0_t5@1 () Bool)
(declare-fun fluent_counter_t4@1 () Real)
(declare-fun fluent_counter_t5@1 () Real)
(declare-fun fluent_busy_@1 () Bool)
(declare-fun parameter_make_treatment_next@1 () Real)
(declare-fun fluent_started_i0_t0@1 () Bool)
(declare-fun fluent_started_i0_t1@1 () Bool)
(declare-fun fluent_started_i0_t2@1 () Bool)
(assert (let ((.def_0 (<= 0.0 fluent_counter_t0@1))) (let ((.def_1 (<= fluent_counter_t5@1 31.0))) (let ((.def_2 (<= 0.0 fluent_counter_t5@1))) (let ((.def_3 (<= fluent_counter_t4@1 31.0))) (let ((.def_4 (<= 0.0 fluent_counter_t4@1))) (let ((.def_5 (<= fluent_counter_t3@1 31.0))) (let ((.def_6 (<= 0.0 fluent_counter_t3@1))) (let ((.def_7 (<= fluent_counter_t2@1 31.0))) (let ((.def_8 (<= 0.0 fluent_counter_t2@1))) (let ((.def_9 (<= fluent_counter_t1@1 31.0))) (let ((.def_10 (<= 0.0 fluent_counter_t1@1))) (let ((.def_11 (<= fluent_counter_t0@1 31.0))) (let ((.def_12 (= parameter_make_treatment_i@1 0.0))) (let ((.def_13 (= parameter_make_treatment_next@1 6.0))) (let ((.def_14 (= parameter_make_treatment_next@1 5.0))) (let ((.def_15 (= parameter_make_treatment_next@1 4.0))) (let ((.def_16 (= parameter_make_treatment_next@1 3.0))) (let ((.def_17 (= parameter_make_treatment_next@1 2.0))) (let ((.def_18 (= parameter_make_treatment_next@1 1.0))) (let ((.def_19 (or .def_18 .def_17 .def_16 .def_15 .def_14 .def_13))) (let ((.def_20 (= parameter_make_treatment_t@1 6.0))) (let ((.def_21 (= parameter_make_treatment_t@1 5.0))) (let ((.def_22 (= parameter_make_treatment_t@1 4.0))) (let ((.def_23 (= parameter_make_treatment_t@1 3.0))) (let ((.def_24 (= parameter_make_treatment_t@1 2.0))) (let ((.def_25 (= parameter_make_treatment_t@1 1.0))) (let ((.def_26 (or .def_25 .def_24 .def_23 .def_22 .def_21 .def_20))) (let ((.def_27 (and act_make_treatment@1 true .def_20))) (let ((.def_28 (= fluent_counter_t5@0 fluent_counter_t5@1))) (let ((.def_29 (not .def_28))) (let ((.def_30 (=> .def_29 .def_27))) (let ((.def_31 (and act_make_treatment@1 true .def_21))) (let ((.def_32 (= fluent_counter_t4@0 fluent_counter_t4@1))) (let ((.def_33 (not .def_32))) (let ((.def_34 (=> .def_33 .def_31))) (let ((.def_35 (and act_make_treatment@1 true .def_22))) (let ((.def_36 (= fluent_counter_t3@0 fluent_counter_t3@1))) (let ((.def_37 (not .def_36))) (let ((.def_38 (=> .def_37 .def_35))) (let ((.def_39 (and act_make_treatment@1 true .def_23))) (let ((.def_40 (= fluent_counter_t2@0 fluent_counter_t2@1))) (let ((.def_41 (not .def_40))) (let ((.def_42 (=> .def_41 .def_39))) (let ((.def_43 (and act_make_treatment@1 true .def_24))) (let ((.def_44 (= fluent_counter_t1@0 fluent_counter_t1@1))) (let ((.def_45 (not .def_44))) (let ((.def_46 (=> .def_45 .def_43))) (let ((.def_47 (and act_make_treatment@1 true .def_25))) (let ((.def_48 (= fluent_counter_t0@0 fluent_counter_t0@1))) (let ((.def_49 (not .def_48))) (let ((.def_50 (=> .def_49 .def_47))) (let ((.def_51 (+ t@1 10.0))) (let ((.def_52 (= t@1 .def_51))) (let ((.def_53 (and act_make_treatment@1 true .def_52 .def_12 .def_13))) (let ((.def_54 (= fluent_ready_i0_t5@0 fluent_ready_i0_t5@1))) (let ((.def_55 (not .def_54))) (let ((.def_56 (=> .def_55 .def_53))) (let ((.def_57 (and act_make_treatment@1 true .def_52 .def_12 .def_14))) (let ((.def_58 (= fluent_ready_i0_t4@0 fluent_ready_i0_t4@1))) (let ((.def_59 (not .def_58))) (let ((.def_60 (=> .def_59 .def_57))) (let ((.def_61 (and act_make_treatment@1 true .def_52 .def_12 .def_15))) (let ((.def_62 (= fluent_ready_i0_t3@0 fluent_ready_i0_t3@1))) (let ((.def_63 (not .def_62))) (let ((.def_64 (=> .def_63 .def_61))) (let ((.def_65 (and act_make_treatment@1 true .def_52 .def_12 .def_16))) (let ((.def_66 (= fluent_ready_i0_t2@0 fluent_ready_i0_t2@1))) (let ((.def_67 (not .def_66))) (let ((.def_68 (=> .def_67 .def_65))) (let ((.def_69 (and act_make_treatment@1 true .def_52 .def_12 .def_17))) (let ((.def_70 (= fluent_ready_i0_t1@0 fluent_ready_i0_t1@1))) (let ((.def_71 (not .def_70))) (let ((.def_72 (=> .def_71 .def_69))) (let ((.def_73 (and act_make_treatment@1 true .def_52 .def_12 .def_18))) (let ((.def_74 (= fluent_ready_i0_t0@0 fluent_ready_i0_t0@1))) (let ((.def_75 (not .def_74))) (let ((.def_76 (=> .def_75 .def_73))) (let ((.def_77 (and act_make_treatment@1 true .def_12 .def_20))) (let ((.def_78 (= fluent_started_i0_t5@0 fluent_started_i0_t5@1))) (let ((.def_79 (not .def_78))) (let ((.def_80 (=> .def_79 .def_77))) (let ((.def_81 (and act_make_treatment@1 true .def_12 .def_21))) (let ((.def_82 (= fluent_started_i0_t4@0 fluent_started_i0_t4@1))) (let ((.def_83 (not .def_82))) (let ((.def_84 (=> .def_83 .def_81))) (let ((.def_85 (and act_make_treatment@1 true .def_12 .def_22))) (let ((.def_86 (= fluent_started_i0_t3@0 fluent_started_i0_t3@1))) (let ((.def_87 (not .def_86))) (let ((.def_88 (=> .def_87 .def_85))) (let ((.def_89 (and act_make_treatment@1 true .def_12 .def_23))) (let ((.def_90 (= fluent_started_i0_t2@0 fluent_started_i0_t2@1))) (let ((.def_91 (not .def_90))) (let ((.def_92 (=> .def_91 .def_89))) (let ((.def_93 (and act_make_treatment@1 true .def_12 .def_24))) (let ((.def_94 (= fluent_started_i0_t1@0 fluent_started_i0_t1@1))) (let ((.def_95 (not .def_94))) (let ((.def_96 (=> .def_95 .def_93))) (let ((.def_97 (and act_make_treatment@1 true .def_12 .def_25))) (let ((.def_98 (= fluent_started_i0_t0@0 fluent_started_i0_t0@1))) (let ((.def_99 (not .def_98))) (let ((.def_100 (=> .def_99 .def_97))) (let ((.def_101 (+ t@1 4.0))) (let ((.def_102 (= t@1 .def_101))) (let ((.def_103 (and act_make_treatment@1 true .def_102 .def_12 .def_20))) (let ((.def_104 (= fluent_treated_i0_t5@0 fluent_treated_i0_t5@1))) (let ((.def_105 (not .def_104))) (let ((.def_106 (=> .def_105 .def_103))) (let ((.def_107 (and act_make_treatment@1 true .def_102 .def_12 .def_21))) (let ((.def_108 (= fluent_treated_i0_t4@0 fluent_treated_i0_t4@1))) (let ((.def_109 (not .def_108))) (let ((.def_110 (=> .def_109 .def_107))) (let ((.def_111 (and act_make_treatment@1 true .def_102 .def_12 .def_22))) (let ((.def_112 (= fluent_treated_i0_t3@0 fluent_treated_i0_t3@1))) (let ((.def_113 (not .def_112))) (let ((.def_114 (=> .def_113 .def_111))) (let ((.def_115 (and act_make_treatment@1 true .def_102 .def_12 .def_23))) (let ((.def_116 (= fluent_treated_i0_t2@0 fluent_treated_i0_t2@1))) (let ((.def_117 (not .def_116))) (let ((.def_118 (=> .def_117 .def_115))) (let ((.def_119 (and act_make_treatment@1 true .def_102 .def_12 .def_24))) (let ((.def_120 (= fluent_treated_i0_t1@0 fluent_treated_i0_t1@1))) (let ((.def_121 (not .def_120))) (let ((.def_122 (=> .def_121 .def_119))) (let ((.def_123 (and act_make_treatment@1 true .def_102 .def_12 .def_25))) (let ((.def_124 (= fluent_treated_i0_t0@0 fluent_treated_i0_t0@1))) (let ((.def_125 (not .def_124))) (let ((.def_126 (=> .def_125 .def_123))) (let ((.def_127 (and act_make_treatment@1 true .def_102))) (let ((.def_128 (and act_make_treatment@1 true))) (let ((.def_129 (and .def_128 .def_127))) (let ((.def_130 (not .def_129))) (let ((.def_131 (or .def_128 .def_127))) (let ((.def_132 (= fluent_busy_@0 fluent_busy_@1))) (let ((.def_133 (not .def_132))) (let ((.def_134 (=> .def_133 .def_131))) (let ((.def_135 (and .def_134 .def_130 .def_126 .def_122 .def_118 .def_114 .def_110 .def_106 .def_100 .def_96 .def_92 .def_88 .def_84 .def_80 .def_76 .def_72 .def_68 .def_64 .def_60 .def_56 .def_50 .def_46 .def_42 .def_38 .def_34 .def_30))) (let ((.def_136 (<= 0.0 t@1))) (let ((.def_137 (and .def_12 .def_17))) (let ((.def_138 (ite .def_137 fluent_ready_i0_t1@1 fluent_ready_i0_t0@1))) (let ((.def_139 (and .def_12 .def_16))) (let ((.def_140 (ite .def_139 fluent_ready_i0_t2@1 .def_138))) (let ((.def_141 (and .def_12 .def_15))) (let ((.def_142 (ite .def_141 fluent_ready_i0_t3@1 .def_140))) (let ((.def_143 (and .def_12 .def_14))) (let ((.def_144 (ite .def_143 fluent_ready_i0_t4@1 .def_142))) (let ((.def_145 (and .def_12 .def_13))) (let ((.def_146 (ite .def_145 fluent_ready_i0_t5@1 .def_144))) (let ((.def_147 (= .def_146 true))) (let ((.def_148 (=> true .def_147))) (let ((.def_149 (and .def_52 .def_148))) (let ((.def_150 (= fluent_busy_@1 false))) (let ((.def_151 (=> true .def_150))) (let ((.def_152 (and .def_12 .def_24))) (let ((.def_153 (ite .def_152 fluent_treated_i0_t1@1 fluent_treated_i0_t0@1))) (let ((.def_154 (and .def_12 .def_23))) (let ((.def_155 (ite .def_154 fluent_treated_i0_t2@1 .def_153))) (let ((.def_156 (and .def_12 .def_22))) (let ((.def_157 (ite .def_156 fluent_treated_i0_t3@1 .def_155))) (let ((.def_158 (and .def_12 .def_21))) (let ((.def_159 (ite .def_158 fluent_treated_i0_t4@1 .def_157))) (let ((.def_160 (and .def_12 .def_20))) (let ((.def_161 (ite .def_160 fluent_treated_i0_t5@1 .def_159))) (let ((.def_162 (= .def_161 true))) (let ((.def_163 (=> true .def_162))) (let ((.def_164 (and .def_102 .def_163 .def_151))) (let ((.def_165 (ite .def_152 fluent_started_i0_t1@1 fluent_started_i0_t0@1))) (let ((.def_166 (ite .def_154 fluent_started_i0_t2@1 .def_165))) (let ((.def_167 (ite .def_156 fluent_started_i0_t3@1 .def_166))) (let ((.def_168 (ite .def_158 fluent_started_i0_t4@1 .def_167))) (let ((.def_169 (ite .def_160 fluent_started_i0_t5@1 .def_168))) (let ((.def_170 (= .def_169 true))) (let ((.def_171 (=> true .def_170))) (let ((.def_172 (= fluent_busy_@1 true))) (let ((.def_173 (=> true .def_172))) (let ((.def_174 (ite .def_24 fluent_counter_t1@0 fluent_counter_t0@0))) (let ((.def_175 (ite .def_23 fluent_counter_t2@0 .def_174))) (let ((.def_176 (ite .def_22 fluent_counter_t3@0 .def_175))) (let ((.def_177 (ite .def_21 fluent_counter_t4@0 .def_176))) (let ((.def_178 (ite .def_20 fluent_counter_t5@0 .def_177))) (let ((.def_179 (+ .def_178 1.0))) (let ((.def_180 (ite .def_24 fluent_counter_t1@1 fluent_counter_t0@1))) (let ((.def_181 (ite .def_23 fluent_counter_t2@1 .def_180))) (let ((.def_182 (ite .def_22 fluent_counter_t3@1 .def_181))) (let ((.def_183 (ite .def_21 fluent_counter_t4@1 .def_182))) (let ((.def_184 (ite .def_20 fluent_counter_t5@1 .def_183))) (let ((.def_185 (= .def_184 .def_179))) (let ((.def_186 (=> true .def_185))) (let ((.def_187 (= t@1 t@1))) (let ((.def_188 (and .def_187 .def_186 .def_173 .def_171))) (let ((.def_189 (ite .def_137 fluent_started_i0_t1@0 fluent_started_i0_t0@0))) (let ((.def_190 (ite .def_139 fluent_started_i0_t2@0 .def_189))) (let ((.def_191 (ite .def_141 fluent_started_i0_t3@0 .def_190))) (let ((.def_192 (ite .def_143 fluent_started_i0_t4@0 .def_191))) (let ((.def_193 (ite .def_145 fluent_started_i0_t5@0 .def_192))) (let ((.def_194 (+ t@1 dur_make_treatment@1))) (let ((.def_195 (<= .def_194 t@1))) (let ((.def_196 (< (- 1.0) .def_194))) (let ((.def_197 (and .def_196 .def_195))) (let ((.def_198 (=> .def_197 .def_193))) (let ((.def_199 (ite .def_152 fluent_ready_i0_t1@0 fluent_ready_i0_t0@0))) (let ((.def_200 (ite .def_154 fluent_ready_i0_t2@0 .def_199))) (let ((.def_201 (ite .def_156 fluent_ready_i0_t3@0 .def_200))) (let ((.def_202 (ite .def_158 fluent_ready_i0_t4@0 .def_201))) (let ((.def_203 (ite .def_160 fluent_ready_i0_t5@0 .def_202))) (let ((.def_204 (ite .def_152 fluent_started_i0_t1@0 fluent_started_i0_t0@0))) (let ((.def_205 (ite .def_154 fluent_started_i0_t2@0 .def_204))) (let ((.def_206 (ite .def_156 fluent_started_i0_t3@0 .def_205))) (let ((.def_207 (ite .def_158 fluent_started_i0_t4@0 .def_206))) (let ((.def_208 (ite .def_160 fluent_started_i0_t5@0 .def_207))) (let ((.def_209 (not .def_208))) (let ((.def_210 (ite .def_152 fluent_treated_i0_t1@0 fluent_treated_i0_t0@0))) (let ((.def_211 (ite .def_154 fluent_treated_i0_t2@0 .def_210))) (let ((.def_212 (ite .def_156 fluent_treated_i0_t3@0 .def_211))) (let ((.def_213 (ite .def_158 fluent_treated_i0_t4@0 .def_212))) (let ((.def_214 (ite .def_160 fluent_treated_i0_t5@0 .def_213))) (let ((.def_215 (not .def_214))) (let ((.def_216 (not fluent_busy_@0))) (let ((.def_217 (and .def_24 .def_18))) (let ((.def_218 (ite .def_217 false false))) (let ((.def_219 (and .def_23 .def_18))) (let ((.def_220 (ite .def_219 false .def_218))) (let ((.def_221 (and .def_22 .def_18))) (let ((.def_222 (ite .def_221 false .def_220))) (let ((.def_223 (and .def_21 .def_18))) (let ((.def_224 (ite .def_223 false .def_222))) (let ((.def_225 (and .def_20 .def_18))) (let ((.def_226 (ite .def_225 false .def_224))) (let ((.def_227 (and .def_25 .def_17))) (let ((.def_228 (ite .def_227 true .def_226))) (let ((.def_229 (and .def_24 .def_17))) (let ((.def_230 (ite .def_229 false .def_228))) (let ((.def_231 (and .def_23 .def_17))) (let ((.def_232 (ite .def_231 false .def_230))) (let ((.def_233 (and .def_22 .def_17))) (let ((.def_234 (ite .def_233 false .def_232))) (let ((.def_235 (and .def_21 .def_17))) (let ((.def_236 (ite .def_235 false .def_234))) (let ((.def_237 (and .def_20 .def_17))) (let ((.def_238 (ite .def_237 false .def_236))) (let ((.def_239 (and .def_25 .def_16))) (let ((.def_240 (ite .def_239 false .def_238))) (let ((.def_241 (and .def_24 .def_16))) (let ((.def_242 (ite .def_241 true .def_240))) (let ((.def_243 (and .def_23 .def_16))) (let ((.def_244 (ite .def_243 false .def_242))) (let ((.def_245 (and .def_22 .def_16))) (let ((.def_246 (ite .def_245 false .def_244))) (let ((.def_247 (and .def_21 .def_16))) (let ((.def_248 (ite .def_247 false .def_246))) (let ((.def_249 (and .def_20 .def_16))) (let ((.def_250 (ite .def_249 false .def_248))) (let ((.def_251 (and .def_25 .def_15))) (let ((.def_252 (ite .def_251 false .def_250))) (let ((.def_253 (and .def_24 .def_15))) (let ((.def_254 (ite .def_253 false .def_252))) (let ((.def_255 (and .def_23 .def_15))) (let ((.def_256 (ite .def_255 true .def_254))) (let ((.def_257 (and .def_22 .def_15))) (let ((.def_258 (ite .def_257 false .def_256))) (let ((.def_259 (and .def_21 .def_15))) (let ((.def_260 (ite .def_259 false .def_258))) (let ((.def_261 (and .def_20 .def_15))) (let ((.def_262 (ite .def_261 false .def_260))) (let ((.def_263 (and .def_25 .def_14))) (let ((.def_264 (ite .def_263 false .def_262))) (let ((.def_265 (and .def_24 .def_14))) (let ((.def_266 (ite .def_265 false .def_264))) (let ((.def_267 (and .def_23 .def_14))) (let ((.def_268 (ite .def_267 false .def_266))) (let ((.def_269 (and .def_22 .def_14))) (let ((.def_270 (ite .def_269 true .def_268))) (let ((.def_271 (and .def_21 .def_14))) (let ((.def_272 (ite .def_271 false .def_270))) (let ((.def_273 (and .def_20 .def_14))) (let ((.def_274 (ite .def_273 false .def_272))) (let ((.def_275 (and .def_25 .def_13))) (let ((.def_276 (ite .def_275 false .def_274))) (let ((.def_277 (and .def_24 .def_13))) (let ((.def_278 (ite .def_277 false .def_276))) (let ((.def_279 (and .def_23 .def_13))) (let ((.def_280 (ite .def_279 false .def_278))) (let ((.def_281 (and .def_22 .def_13))) (let ((.def_282 (ite .def_281 false .def_280))) (let ((.def_283 (and .def_21 .def_13))) (let ((.def_284 (ite .def_283 true .def_282))) (let ((.def_285 (and .def_20 .def_13))) (let ((.def_286 (ite .def_285 false .def_284))) (let ((.def_287 (= 0.0 .def_178))) (let ((.def_288 (and .def_287 .def_286 .def_216 .def_215 .def_209 .def_203))) (let ((.def_289 (<= t@1 t@1))) (let ((.def_290 (< (- 1.0) t@1))) (let ((.def_291 (and .def_290 .def_289))) (let ((.def_292 (=> .def_291 .def_288))) (let ((.def_293 (<= dur_make_treatment@1 15.0))) (let ((.def_294 (<= 15.0 dur_make_treatment@1))) (let ((.def_295 (and .def_294 .def_293))) (let ((.def_296 (and .def_295 .def_195 .def_292 .def_198 .def_188 .def_164 .def_149))) (let ((.def_297 (=> act_make_treatment@1 .def_296))) (let ((.def_298 (<= fluent_counter_t3@0 31.0))) (let ((.def_299 (<= 0.0 fluent_counter_t3@0))) (let ((.def_300 (<= fluent_counter_t2@0 31.0))) (let ((.def_301 (<= 0.0 fluent_counter_t2@0))) (let ((.def_302 (<= fluent_counter_t1@0 31.0))) (let ((.def_303 (<= 0.0 fluent_counter_t1@0))) (let ((.def_304 (<= fluent_counter_t0@0 31.0))) (let ((.def_305 (<= 0.0 fluent_counter_t0@0))) (let ((.def_306 (<= fluent_counter_t5@0 31.0))) (let ((.def_307 (<= 0.0 fluent_counter_t5@0))) (let ((.def_308 (<= fluent_counter_t4@0 31.0))) (let ((.def_309 (<= 0.0 fluent_counter_t4@0))) (let ((.def_310 (= fluent_counter_t5@0 0.0))) (let ((.def_311 (= fluent_counter_t4@0 0.0))) (let ((.def_312 (= fluent_counter_t3@0 0.0))) (let ((.def_313 (= fluent_counter_t2@0 0.0))) (let ((.def_314 (= fluent_counter_t1@0 0.0))) (let ((.def_315 (= fluent_counter_t0@0 0.0))) (let ((.def_316 (= false false))) (let ((.def_317 (= fluent_ready_i0_t5@0 false))) (let ((.def_318 (= fluent_ready_i0_t4@0 false))) (let ((.def_319 (= fluent_ready_i0_t3@0 false))) (let ((.def_320 (= fluent_ready_i0_t2@0 false))) (let ((.def_321 (= fluent_ready_i0_t1@0 false))) (let ((.def_322 (= fluent_started_i0_t4@0 false))) (let ((.def_323 (= fluent_started_i0_t3@0 false))) (let ((.def_324 (= fluent_started_i0_t2@0 false))) (let ((.def_325 (= fluent_started_i0_t1@0 false))) (let ((.def_326 (= fluent_started_i0_t0@0 false))) (let ((.def_327 (= fluent_treated_i0_t5@0 false))) (let ((.def_328 (= fluent_treated_i0_t4@0 false))) (let ((.def_329 (= fluent_treated_i0_t3@0 false))) (let ((.def_330 (= fluent_treated_i0_t2@0 false))) (let ((.def_331 (= fluent_treated_i0_t1@0 false))) (let ((.def_332 (= fluent_treated_i0_t0@0 false))) (let ((.def_333 (= fluent_busy_@0 false))) (let ((.def_334 (= fluent_ready_i0_t0@0 true))) (let ((.def_335 (= fluent_started_i0_t5@0 true))) (let ((.def_336 (= true true))) (let ((.def_337 (= 0.0 0.0))) (let ((.def_338 (and .def_337 .def_336 .def_336 .def_336 .def_336 .def_336 .def_335 .def_334 .def_333 .def_332 .def_331 .def_330 .def_329 .def_328 .def_327 .def_326 .def_325 .def_324 .def_323 .def_322 .def_321 .def_320 .def_319 .def_318 .def_317 .def_316 .def_316 .def_316 .def_316 .def_316 .def_316 .def_316 .def_316 .def_316 .def_316 .def_316 .def_316 .def_316 .def_316 .def_316 .def_316 .def_316 .def_316 .def_316 .def_316 .def_316 .def_316 .def_316 .def_316 .def_316 .def_316 .def_316 .def_316 .def_316 .def_316 .def_316 .def_315 .def_314 .def_313 .def_312 .def_311 .def_310 .def_309 .def_308 .def_307 .def_306 .def_305 .def_304 .def_303 .def_302 .def_301 .def_300 .def_299 .def_298))) (let ((.def_339 (and .def_338 .def_297 .def_136 true true .def_135 .def_26 .def_19 .def_12 .def_11 .def_10 .def_9 .def_8 .def_7 .def_6 .def_5 .def_4 .def_3 .def_2 .def_1 .def_0 true))) .def_339)))))))))))))))))))))))))))))))))))))))))))))))))))))))))))))))))))))))))))))))))))))))))))))))))))))))))))))))))))))))))))))))))))))))))))))))))))))))))))))))))))))))))))))))))))))))))))))))))))))))))))))))))))))))))))))))))))))))))))))))))))))))))))))))))))))))))))))))))))))))))))))))))))))))))))))))))))))))))))))))))))))))))))))))))))))
(check-sat)
